50
23469

862 681
466 774
511 625
615 647
13 165
984 770
594 757
915 921
892 254
186 220
221 305
972 864
33 277
865 662
788 342
538 754
190 296
107 800
198 28
925 747
770 405
266 966
123 123
26 81
272 174
245 938
68 91
544 289
276 83
404 825
109 690
89 418
355 366
382 768
793 11
867 174
914 845
976 183
119 774
480 506
957 889
384 862
757 65
773 477
742 419
431 911
914 881
597 491
368 14
940 305
